Global Parameters
ISTART =  1            (Read existing wavefunction, if there)
ISPIN  =  1            (Non-Spin polarised DFT)
# ICHARG =  11         (Non-self-consistent: GGA/LDA band structures)
LREAL  = .FALSE.       (Projection operators: automatic)
 ENCUT  =  500        (Cut-off energy for plane wave basis set, in eV)
PREC   =  Normal   (Precision level: Normal or Accurate, set Accurate when perform structure lattice relaxation calculation)
LWAVE  = .FALSE.        (Write WAVECAR or not)
LCHARG = .TRUE.        (Write CHGCAR or not)
ADDGRID= .TRUE.        (Increase grid, helps GGA convergence)
Work function
# LVTOT  = .TRUE.      (Write total electrostatic potential into LOCPOT or not)
 LVHAR  = .TRUE.      (Write ionic + Hartree electrostatic potential into LOCPOT or not)

 
Electronic Relaxation
ISMEAR =  0            (Gaussian smearing, metals:1)
SIGMA  =  0.025         (Smearing value in eV, metals:0.2)
NELM   =  60           (Max electronic SCF steps)
NELMIN =  6            (Min electronic SCF steps)
EDIFF  =  1E-06        (SCF energy convergence, in eV)
 
Ionic Relaxation
NSW    =  0          (Max ionic steps)
IBRION =  2            (Algorithm: 0-MD, 1-Quasi-New, 2-CG)
ISIF   =  2            (Stress/relaxation: 2-Ions, 3-Shape/Ions/V, 4-Shape/Ions)
EDIFFG = -2E-03        (Ionic convergence, eV/AA)
LORBIT= 11
LAECHG = .TRUE.
LDIPOL    = T
IDIPOL    = 3
DIPOL     = 0.5 0.5 0.5
