Mo  S Se 
 1.0000000000000000
     3.2516810999999999   -0.0000000000033103   -0.0000000000000000
    -1.6258405499528539    2.8160384376256835   -0.0000000000000000
     0.0000000000000000    0.0000000000000000   15.0000000000000000
 Mo  S Se 
   1   1   1
Cartesian
  1.6258405248756995  0.9386794655641943  7.5879218766559369
  0.0000000251714463  1.8773589720581789  9.1167710422763939
  0.0000000251714463  1.8773589720581789  5.8832289577236061
